
Log started (V12.8.0.0) Fri Jan 26 16:15:37 2018


Problem 'lpex1.lp' read.
Read time = 0.01 sec. (0.00 ticks)
Tried aggregator 1 time.
No LP presolve or aggregator reductions.
Presolve time = 0.00 sec. (0.00 ticks)

Iteration log . . .
Iteration:     1   Dual infeasibility =             0.000000
Iteration:     2   Dual objective     =           202.500000

Dual simplex - Optimal:  Objective =  2.0250000000e+02
Solution time =    0.01 sec.  Iterations = 2 (1)
Deterministic time = 0.00 ticks  (0.53 ticks/sec)


Variable Name           Solution Value
x1                           40.000000
x2                           17.500000
x3                           42.500000

Problem 'lpex1.lp' read.
Read time = 0.00 sec. (0.00 ticks)
Tried aggregator 1 time.
LP Presolve eliminated 0 rows and 1 columns.
Reduced LP has 2 rows, 2 columns, and 4 nonzeros.
Presolve time = 0.00 sec. (0.00 ticks)

Dual simplex - Optimal:  Objective =  0.0000000000e+00
Solution time =    0.00 sec.  Iterations = 0 (0)
Deterministic time = 0.00 ticks  (2.53 ticks/sec)


All variables in the range 1-3 are 0.

Problem 'lpex1.lp' read.
Read time = 0.00 sec. (0.00 ticks)
Tried aggregator 1 time.
LP Presolve eliminated 2 rows and 3 columns.
All rows and columns eliminated.
Presolve time = 0.00 sec. (0.00 ticks)

Dual simplex - Optimal:  Objective =  0.0000000000e+00
Solution time =    0.00 sec.  Iterations = 0 (0)
Deterministic time = 0.00 ticks  (1.62 ticks/sec)


All variables in the range 1-3 are 0.

Problem 'lpex1.lp' read.
Read time = 0.00 sec. (0.00 ticks)

Problem 'lpex1.lp' read.
Read time = 0.00 sec. (0.00 ticks)
Tried aggregator 1 time.
No LP presolve or aggregator reductions.
Presolve time = 0.00 sec. (0.00 ticks)

Dual simplex - Optimal:  Objective = -1.2000000000e+02
Solution time =    0.00 sec.  Iterations = 0 (0)
Deterministic time = 0.00 ticks  (1.67 ticks/sec)


Variable Name           Solution Value
x1                           40.000000
x2                           10.000000
x3                           20.000000

Log started (V12.8.0.0) Fri Jan 26 16:22:10 2018

No problem exists.
No file read.
No problem exists.

Log started (V12.8.0.0) Fri Jan 26 16:22:45 2018


Problem 'lpex1.lp' read.
Read time = 0.00 sec. (0.00 ticks)
Tried aggregator 1 time.
No LP presolve or aggregator reductions.
Presolve time = 0.00 sec. (0.00 ticks)

Dual simplex - Optimal:  Objective = -1.2000000000e+02
Solution time =    0.00 sec.  Iterations = 0 (0)
Deterministic time = 0.00 ticks  (1.67 ticks/sec)


Variable Name           Solution Value
x1                           40.000000
x2                           10.000000
x3                           20.000000

Log started (V12.8.0.0) Fri Jan 26 16:23:02 2018


Problem 'lpex1.lp' read.
Read time = 0.00 sec. (0.00 ticks)
Tried aggregator 1 time.
No LP presolve or aggregator reductions.
Presolve time = 0.00 sec. (0.00 ticks)

Dual simplex - Optimal:  Objective = -1.2000000000e+02
Solution time =    0.00 sec.  Iterations = 0 (0)
Deterministic time = 0.00 ticks  (1.67 ticks/sec)


Variable Name           Solution Value
x1                           40.000000
x2                           10.000000
x3                           20.000000
